;; Original file: adr_135.smt2
(set-logic HORN)
(declare-fun |sum$unknown:2| (Int Int) Bool)


(assert (forall ((|$knormal:2| Int)
         (|$alpha-1:n| Int)
         (|$knormal:1| Int)
         (|$V-reftype:10| Int)
         (|$knormal:3| Int))
  (let ((a!1 (and (= |$knormal:2| (- |$alpha-1:n| 1))
                  (= (not (= 0 |$knormal:1|)) (<= |$alpha-1:n| 0))
                  (= |$V-reftype:10| (+ |$alpha-1:n| |$knormal:3|))
                  (not (not (= 0 |$knormal:1|)))
                  (|sum$unknown:2| |$knormal:3| |$knormal:2|)
                  true)))
    (=> a!1 (|sum$unknown:2| |$V-reftype:10| |$alpha-1:n|)))))
(assert (forall ((|$knormal:1| Int) (|$alpha-1:n| Int) (|$V-reftype:8| Int))
  (let ((a!1 (and (= (not (= 0 |$knormal:1|)) (<= |$alpha-1:n| 0))
                  (= |$V-reftype:8| 0)
                  (not (= 0 |$knormal:1|))
                  true)))
    (=> a!1 (|sum$unknown:2| |$V-reftype:8| |$alpha-1:n|)))))
(assert (forall ((|$knormal:7| Int) (|$alpha-2:n| Int) (|$knormal:5| Int))
  (let ((a!1 (and (= (not (= 0 |$knormal:7|))
                     (<= |$alpha-2:n| |$knormal:5|))
                  (not (not (= 0 |$knormal:7|)))
                  (|sum$unknown:2| |$knormal:5| |$alpha-2:n|))))
    (=> a!1 false))))
(check-sat)
